20 1 5
986 265 139 686 19 225 637 174 301 551 36 680 44 568 956 537 852 808 547 659 
284 200 108 198 213 187 503 655 967 232 871 953 497 9 638 515 234 275 689 534 
825 724 213 869 292 168 405 144 975 951 802 258 151 909 456 363 96 959 17 63 
190 887 15 686 896 652 201 129 926 889 662 751 613 874 619 905 41 24 48 16 
975 849 274 125 758 729 488 853 688 504 915 877 391 929 563 286 581 763 414 507 
6520 760 2570 2650 9490 8760 1690 9900 8990 2160 60 8740 650 2790 9980 8220 80 4850 6750 6950 
51280
